;; unsat

(declare-const x2 sl.list.loc)
(declare-const x3 sl.list.loc)
(declare-const x4 sl.list.loc)
(declare-const x5 sl.list.loc)
(declare-const x6 sl.list.loc)
(declare-const x7 sl.list.loc)
(declare-const x8 sl.list.loc)
(declare-const x9 sl.list.loc)
(declare-const x10 sl.list.loc)
(declare-const x11 sl.list.loc)
(declare-const x12 sl.list.loc)
(declare-const x13 sl.list.loc)
(declare-const x14 sl.list.loc)
(declare-const x15 sl.list.loc)
(declare-const x16 sl.list.loc)

(assert (sl.sepcon (sl.sepcon (sl.sepcon (sl.sepcon (sl.sepcon (sl.sepcon (sl.sepcon (sl.sepcon (sl.sepcon (sl.sepcon (sl.sepcon (sl.sepcon (sl.sepcon (sl.sepcon (sl.sepcon (sl.sepcon (sl.list.eq sl.list.null sl.list.null)
 (sl.list.neq x6 x11)
)
 (sl.list.neq x6 x7)
)
 (sl.list.neq x3 x10)
)
 (sl.list.neq x3 x14)
)
 (sl.list.neq x7 x15)
)
 (sl.list.neq x9 x15)
)
 (sl.list.neq x9 x14)
)
 (sl.list.neq x2 x16)
)
 (sl.list.neq x2 x5)
)
 (sl.list.neq x14 x16)
)
 (sl.list.neq x10 x11)
)
 (sl.list.neq x13 x15)
)
 (sl.list.neq x5 x9)
)
 (sl.list.neq x5 x16)
)
 (sl.list.neq x5 x15)
)
 (sl.sepcon (sl.sepcon (sl.sepcon (sl.sepcon (sl.sepcon (sl.sepcon (sl.sepcon (sl.sepcon (sl.sepcon (sl.sepcon (sl.sepcon (sl.list.seg x14 x12)
 (sl.list.seg x2 x13)
)
 (sl.list.seg x13 x6)
)
 (sl.list.seg x13 x8)
)
 (sl.list.seg x10 x2)
)
 (sl.list.seg x10 x3)
)
 (sl.list.seg x7 x2)
)
 (sl.list.seg x7 x16)
)
 (sl.list.seg x3 x14)
)
 (sl.list.seg x11 x4)
)
 (sl.list.seg x6 x14)
)
 (sl.list.seg x6 x16)
)
)
)

